SCIP version 0.82 [precision: 8 byte] [memory: block] [mode: optimized] [LP solver: SOPLEX 1.3.0]
Copyright (c) 2002-2006 Konrad-Zuse-Zentrum fuer Informationstechnik Berlin (ZIB)

reading parameter file <scip.set>

read problem </ufs/psxjm3/instances/random_3.ctt.c.zpl>
============

****************************************************
* Zuse Institute Mathematical Programming Language *
* Release 2.04  Copyright (C)2005 by Thorsten Koch *
****************************************************

original problem has 4800 variables (4800 bin, 0 int, 0 impl, 0 cont) and 1684 constraints

solve problem
=============

LP Solver <SOPLEX 1.3.0>: dual feasibility tolerance cannot be set -- tolerance of SCIP and LP solver may differ
LP Solver <SOPLEX 1.3.0>: barrier convergence tolerance cannot be set -- tolerance of SCIP and LP solver may differ
LP Solver <SOPLEX 1.3.0>: fastmip setting not available -- SCIP parameter has no effect
LP Solver <SOPLEX 1.3.0>: scaling not available -- SCIP parameter has no effect
LP Solver <SOPLEX 1.3.0>: presolving not available -- SCIP parameter has no effect
transformed problem has 4800 variables (4800 bin, 0 int, 0 impl, 0 cont) and 1684 constraints
   1684 constraints of type <linear>

presolving:
(round 1) 684 del vars, 26 del conss, 684 chg bounds, 0 chg sides, 0 chg coeffs, 0 upgd conss, 0 impls, 1255 clqs
(round 2) 684 del vars, 160 del conss, 684 chg bounds, 0 chg sides, 0 chg coeffs, 0 upgd conss, 0 impls, 1255 clqs
(round 3) 684 del vars, 1048 del conss, 684 chg bounds, 896 chg sides, 0 chg coeffs, 0 upgd conss, 0 impls, 1255 clqs
(round 4) 684 del vars, 1048 del conss, 684 chg bounds, 896 chg sides, 0 chg coeffs, 587 upgd conss, 0 impls, 1255 clqs
   (0.6s) probing: 100/4116 (2.4%) - 0 fixings, 0 aggregations, 0 implications, 0 bound changes
presolving (5 rounds):
 684 deleted vars, 1048 deleted constraints, 684 tightened bounds, 0 added holes, 896 changed sides, 0 changed coefficients
 0 implications, 1255 cliques
presolved problem has 4116 variables (4116 bin, 0 int, 0 impl, 0 cont) and 636 constraints
    587 constraints of type <setppc>
     49 constraints of type <linear>
objective value is always integral
Presolving Time: 0.56

 time | node  | left  |LP iter| mem |mdpt |frac |vars |cons |ccons|cols |rows |cuts |confs|strbr|  dualbound   | primalbound  |  gap   
  0.7s|     1 |     0 |   543 |  13M|   0 |  61 |4116 | 636 | 636 |4116 | 636 |   0 |   0 |   0 | 0.000000e+00 |      --      |    Inf 
  0.8s|     1 |     0 |   585 |  13M|   0 |  96 |4116 | 636 | 636 |4116 | 640 |   4 |   0 |   0 | 0.000000e+00 |      --      |    Inf 
  0.9s|     1 |     0 |   627 |  13M|   0 |  93 |4116 | 636 | 636 |4116 | 642 |   6 |   0 |   0 | 0.000000e+00 |      --      |    Inf 
  1.0s|     1 |     0 |   653 |  13M|   0 | 113 |4116 | 636 | 636 |4116 | 646 |  10 |   0 |   0 | 0.000000e+00 |      --      |    Inf 
  1.1s|     1 |     0 |   685 |  13M|   0 | 112 |4116 | 636 | 636 |4116 | 650 |  14 |   0 |   0 | 0.000000e+00 |      --      |    Inf 
  1.1s|     1 |     0 |   703 |  13M|   0 | 109 |4116 | 636 | 636 |4116 | 652 |  16 |   0 |   0 | 0.000000e+00 |      --      |    Inf 
  1.2s|     1 |     0 |   720 |  13M|   0 | 101 |4116 | 636 | 636 |4116 | 654 |  18 |   0 |   0 | 0.000000e+00 |      --      |    Inf 
F 1.9s|     1 |     2 |  1044 |  13M|   0 |   0 |4116 | 636 | 636 |4116 | 654 |  18 |   0 |  33 | 0.000000e+00 | 0.000000e+00 |   0.00%

SCIP Status        : problem is solved [optimal solution found]
Solving Time (sec) : 1.94
Solving Nodes      : 1
Primal Bound       : +0.00000000000000e+00 (1 solutions)
Dual Bound         : +0.00000000000000e+00
Gap                : 0.00 %

primal solution:
================

objective value:                                    0
Taught#1#1#10                                       1 	(obj:0)
Taught#1#2#7                                        1 	(obj:0)
Taught#1#3#16                                       1 	(obj:0)
Taught#1#4#27                                       1 	(obj:0)
Taught#1#5#20                                       1 	(obj:0)
Taught#1#6#23                                       1 	(obj:0)
Taught#2#1#23                                       1 	(obj:0)
Taught#2#3#13                                       1 	(obj:0)
Taught#2#4#22                                       1 	(obj:0)
Taught#2#6#18                                       1 	(obj:0)
Taught#3#1#30                                       1 	(obj:0)
Taught#3#3#20                                       1 	(obj:0)
Taught#3#4#22                                       1 	(obj:0)
Taught#3#5#31                                       1 	(obj:0)
Taught#3#6#15                                       1 	(obj:0)
Taught#4#1#7                                        1 	(obj:0)
Taught#4#2#25                                       1 	(obj:0)
Taught#4#3#20                                       1 	(obj:0)
Taught#4#4#18                                       1 	(obj:0)
Taught#4#5#22                                       1 	(obj:0)
Taught#4#6#31                                       1 	(obj:0)
Taught#5#1#13                                       1 	(obj:0)
Taught#5#2#29                                       1 	(obj:0)
Taught#5#3#8                                        1 	(obj:0)
Taught#5#4#26                                       1 	(obj:0)
Taught#5#5#21                                       1 	(obj:0)
Taught#5#6#6                                        1 	(obj:0)
Taught#6#1#25                                       1 	(obj:0)
Taught#6#3#30                                       1 	(obj:0)
Taught#6#4#8                                        1 	(obj:0)
Taught#6#5#15                                       1 	(obj:0)
Taught#6#6#21                                       1 	(obj:0)
Taught#7#1#29                                       1 	(obj:0)
Taught#7#2#31                                       1 	(obj:0)
Taught#7#3#18                                       1 	(obj:0)
Taught#7#4#21                                       1 	(obj:0)
Taught#7#5#9                                        1 	(obj:0)
Taught#7#6#26                                       1 	(obj:0)
Taught#8#1#25                                       1 	(obj:0)
Taught#8#2#15                                       1 	(obj:0)
Taught#8#3#7                                        1 	(obj:0)
Taught#8#4#3                                        1 	(obj:0)
Taught#9#1#15                                       1 	(obj:0)
Taught#9#2#12                                       1 	(obj:0)
Taught#9#4#17                                       1 	(obj:0)
Taught#10#1#32                                      1 	(obj:0)
Taught#10#2#12                                      1 	(obj:0)
Taught#10#4#9                                       1 	(obj:0)
Taught#10#6#16                                      1 	(obj:0)
Taught#11#1#1                                       1 	(obj:0)
Taught#11#2#12                                      1 	(obj:0)
Taught#11#3#5                                       1 	(obj:0)
Taught#11#4#9                                       1 	(obj:0)
Taught#12#4#1                                       1 	(obj:0)
Taught#12#5#24                                      1 	(obj:0)
Taught#12#6#11                                      1 	(obj:0)
Taught#13#2#19                                      1 	(obj:0)
Taught#13#5#11                                      1 	(obj:0)
Taught#13#6#29                                      1 	(obj:0)
Taught#14#3#16                                      1 	(obj:0)
Taught#14#4#13                                      1 	(obj:0)
Taught#14#5#14                                      1 	(obj:0)
Taught#14#6#3                                       1 	(obj:0)
Taught#15#1#30                                      1 	(obj:0)
Taught#15#2#18                                      1 	(obj:0)
Taught#15#4#4                                       1 	(obj:0)
Taught#15#5#19                                      1 	(obj:0)
Taught#16#2#10                                      1 	(obj:0)
Taught#16#3#6                                       1 	(obj:0)
Taught#16#6#30                                      1 	(obj:0)
Taught#17#1#2                                       1 	(obj:0)
Taught#17#2#4                                       1 	(obj:0)
Taught#17#5#6                                       1 	(obj:0)
Taught#18#1#5                                       1 	(obj:0)
Taught#18#2#28                                      1 	(obj:0)
Taught#18#4#2                                       1 	(obj:0)
Taught#18#6#1                                       1 	(obj:0)
Taught#19#2#17                                      1 	(obj:0)
Taught#19#3#28                                      1 	(obj:0)
Taught#20#2#6                                       1 	(obj:0)
Taught#20#3#5                                       1 	(obj:0)
Taught#20#5#19                                      1 	(obj:0)
Taught#21#4#4                                       1 	(obj:0)
Taught#21#5#29                                      1 	(obj:0)
Taught#22#3#11                                      1 	(obj:0)
Taught#22#4#1                                       1 	(obj:0)
Taught#22#5#2                                       1 	(obj:0)
Taught#22#6#28                                      1 	(obj:0)
Taught#23#2#17                                      1 	(obj:0)
Taught#23#3#14                                      1 	(obj:0)
Taught#23#5#4                                       1 	(obj:0)
Taught#23#6#27                                      1 	(obj:0)
Taught#24#1#12                                      1 	(obj:0)
Taught#24#2#17                                      1 	(obj:0)
Taught#24#3#14                                      1 	(obj:0)
Taught#24#4#16                                      1 	(obj:0)
Taught#24#6#24                                      1 	(obj:0)
Taught#25#2#9                                       1 	(obj:0)
Taught#25#5#23                                      1 	(obj:0)
Taught#25#6#28                                      1 	(obj:0)

Statistics
==========

SCIP Status        : problem is solved [optimal solution found]
Solving Time       :       1.94
Original Problem   :
  Problem name     : random_3.ctt.c.zpl
  Variables        : 4800 (4800 binary, 0 integer, 0 implicit integer, 0 continuous)
  Constraints      : 1684 initial, 1684 maximal
Presolved Problem  :
  Problem name     : t_random_3.ctt.c.zpl
  Variables        : 4116 (4116 binary, 0 integer, 0 implicit integer, 0 continuous)
  Constraints      : 636 initial, 636 maximal
Presolvers         :       Time  FixedVars   AggrVars   ChgTypes  ChgBounds   AddHoles    DelCons   ChgSides   ChgCoefs
  trivial          :       0.00          0          0          0          0          0          0          0          0
  inttobinary      :       0.00          0          0          0          0          0          0          0          0
  dualfix          :       0.00          0          0          0          0          0          0          0          0
  implics          :       0.00          0          0          0          0          0          0          0          0
  probing          :       0.40          0          0          0          0          0          0          0          0
  setppc           :       0.01          0          0          0          0          0          0          0          0
  linear           :       0.10        684          0          0        684          0       1048        896          0
  root node        :          -          0          -          -          0          -          -          -          -
Constraints        :     Number  #Separate #Propagate    #EnfoLP    #EnfoPS    Cutoffs    DomReds       Cuts      Conss   Children
  integral         :          0          0          0          1          0          0          0          0          0          2
  setppc           :        587          6        201          0          0          0          0          0          0          0
  linear           :         49          6        201          0          0          0          0          0          0          0
Constraint Timings :  TotalTime   Separate  Propagate     EnfoLP     EnfoPS
  integral         :       0.53       0.00       0.00       0.53       0.00
  setppc           :       0.01       0.00       0.01       0.00       0.00
  linear           :       0.32       0.00       0.32       0.00       0.00
Propagators        :       Time      Calls    Cutoffs    DomReds
  rootredcost      :       0.00          0          0          0
  pseudoobj        :       0.00          1          0          0
Conflict Analysis  :       Time      Calls    Success  Conflicts   Literals    Reconvs ReconvLits   LP Iters
  propagation      :       0.00          0          0          0        0.0          0        0.0          -
  infeasible LP    :       0.00          0          0          0        0.0          0        0.0          0
  bound exceed. LP :       0.00          0          0          0        0.0          0        0.0          0
  strong branching :       0.00          0          0          0        0.0          0        0.0          0
  pseudo solution  :       0.00          0          0          0        0.0          0        0.0          -
  applied globally :          -          -          -          0        0.0          -          -          -
  applied locally  :          -          -          -          0        0.0          -          -          -
Separators         :       Time      Calls    Cutoffs    DomReds       Cuts      Conss
  cut pool         :       0.00          5          -          -          0          -    (maximal pool size: 19)
  redcost          :       0.00          6          0          0          0          0
  impliedbounds    :       0.00          6          0          0          0          0
  intobj           :       0.00          0          0          0          0          0
  gomory           :       0.00          6          0          0          0          0
  strongcg         :       0.01          6          0          0          0          0
  cmir             :       0.32          6          0          0          0          0
  clique           :       0.01          6          0          0         18          0
Pricers            :       Time      Calls       Vars
  problem variables:       0.00          0          0
Branching Rules    :       Time      Calls    Cutoffs    DomReds       Cuts      Conss   Children
  relpscost        :       0.53          1          0          0          0          0          2
  pscost           :       0.00          0          0          0          0          0          0
  inference        :       0.00          0          0          0          0          0          0
  mostinf          :       0.00          0          0          0          0          0          0
  leastinf         :       0.00          0          0          0          0          0          0
  fullstrong       :       0.00          0          0          0          0          0          0
  allfullstrong    :       0.00          0          0          0          0          0          0
Primal Heuristics  :       Time      Calls      Found
  LP solutions     :       0.00          -          0
  pseudo solutions :       0.00          -          0
  octane           :       0.00          0          0
  simplerounding   :       0.00          7          0
  rounding         :       0.02          7          0
  shifting         :       0.08          7          0
  fixandinfer      :       0.00          0          0
  feaspump         :       0.18          1          1
  coefdiving       :       0.00          0          0
  pscostdiving     :       0.00          0          0
  fracdiving       :       0.00          0          0
  intdiving        :       0.00          0          0
  objpscostdiving  :       0.00          0          0
  rootsoldiving    :       0.00          0          0
  linesearchdiving :       0.00          0          0
  guideddiving     :       0.00          0          0
  rins             :       0.00          0          0
  localbranching   :       0.00          0          0
  crossover        :       0.00          0          0
LP                 :       Time      Calls Iterations  Iter/call   Iter/sec
  primal LP        :       0.00          0          0       0.00          -
  dual LP          :       0.14          7        720     102.86    5142.86
  barrier LP       :       0.00          0          0       0.00          -
  diving/probing LP:       0.17          1        324     324.00    1905.88
  strong branching :       0.53         33       1434      43.45    2705.66
    (at root node) :          -         33       1434      43.45          -
  conflict analysis:       0.00          0          0       0.00          -
B&B Tree           :
  number of runs   :          1
  nodes            :          1
  nodes (total)    :          1
  nodes left       :          0
  max depth        :          0
  max depth (total):          0
  backtracks       :          0 (0.0%)
  delayed cutoffs  :          0
  repropagations   :          0 (0 domain reductions, 0 cutoffs)
  avg switch length:       2.00
  switching time   :       0.00
Solution           :
  Solutions found  :          1 (1 improvements)
  Primal Bound     : +0.00000000000000e+00   (in run 1, after 1 nodes, 1.94 seconds, depth 0, found by <feaspump>)
  Dual Bound       : +0.00000000000000e+00
  Gap              :       0.00 %
  Root Dual Bound  : +0.00000000000000e+00
cp: copying multiple files, but last argument `/home/psxjm3/' is not a directory
Try `cp --help' for more information.
